50, 125047
19, 5000
47, 5003
4, 5000
36, 5003
31, 5004
41, 5002
41, 5000
40, 5001
7, 5000
27, 5002
32, 5000
25, 5003
45, 5003
8, 5002
38, 5003
17, 5003
37, 5003
12, 5001
27, 5002
39, 5003
23, 5003
3, 5000
23, 5001
44, 5000
13, 5000
36, 5002
38, 5002
39, 5002
44, 5004
26, 5002
24, 5004
4, 5003
34, 5004
32, 5000
35, 5003
43, 5000
44, 5000
7, 5001
21, 5004
42, 5000
3, 5000
4, 5002
1, 5000
11, 5004
7, 5001
37, 5004
34, 5001
25, 5004
42, 5002
20, 5004
